 $CONTRL EXETYP=RUN RUNTYP=OPTIMIZE SCFTYP=RHF COORD=CART UNITS=ANGS $END
 $BASIS GBASIS=PM3 $END

 $DATA
2wat.pdb
C1
O      8.0     -0.0000000000   -0.0000000000    0.0000000000 
H      1.0     -0.5390000000   -0.6090000000    0.5110000000 
H      1.0      0.1250000000    0.8110000000    0.4980000000 
O      8.0      0.2900000000    2.8640000000    0.1790000000 
H      1.0     -0.5190000000    2.3480000000    0.1430000000 
H      1.0      0.5640000000    2.9670000000    1.0930000000 
 $END


